p cnf 91 377
2 3 24 -32 56 59 -62 0
3 4 19 23 -50 -91 0
4 -49 -51 -68 -91 0
-5 -6 52 62 82 0
-5 52 -63 82 84 0
10 20 -69 -77 88 0
10 26 -27 -28 -34 0
12 13 -31 -73 79 0
12 13 57 58 -73 0
-14 -31 -73 -78 79 0
-16 -19 -51 -86 91 0
-17 20 22 -72 -77 0
20 41 -54 69 -70 0
-21 -69 70 -77 88 0
40 -42 46 60 -87 0
1 2 24 -32 56 0
12 57 58 -73 78 0
-16 -23 -51 -86 -89 0
36 -61 62 -63 82 0
3 4 23 -50 -51 -91 0
1 24 32 -33 0
1 42 45 70 0
3 25 32 56 0
-3 -16 -19 91 0
4 -61 78 82 0
-4 52 62 -63 0
-4 52 -78 -84 0
7 9 -43 45 0
7 9 45 46 0
7 9 46 64 0
7 42 83 -87 0
8 9 -48 55 0
8 -46 -47 55 0
-8 45 46 48 0
10 12 26 -27 0
10 20 -72 -77 0
10 -60 -69 83 0
11 26 -31 -80 0
11 -31 -73 78 0
-14 -15 58 76 0
-16 -50 68 -89 0
-17 22 -72 -77 0
-18 -19 -40 -48 0
19 23 -30 -36 0
19 51 81 85 0
19 -75 -76 -80 0
-19 -38 54 72 0
-19 67 -86 -90 0
20 -38 -70 71 0
23 32 34 56 0
-35 36 37 63 0
-35 -56 59 -61 0
-41 -53 70 -72 0
-42 45 -60 83 0
-46 -47 55 64 0
50 66 67 89 0
-50 51 -68 -89 0
66 67 -86 -90 0
74 -75 -76 -80 0
2 -32 -56 61 0
-3 -16 -23 91 0
-4 52 -63 -84 0
7 46 -47 64 0
-8 46 -60 -87 0
10 26 -28 -34 0
10 -27 34 -57 0
13 57 58 -73 0
-13 -49 90 -91 0
-17 44 -72 77 0
-18 -19 -60 -69 0
19 23 -33 -65 0
19 39 41 69 0
20 21 22 69 0
21 22 70 88 0
-23 -51 67 91 0
32 33 56 61 0
-51 67 -68 -86 0
1 -10 27 0
1 60 69 0
-1 4 8 0
-1 8 -88 0
-1 -30 -36 0
2 3 -62 0
-2 -5 35 0
-2 -5 -65 0
-2 -5 74 0
3 4 9 0
-3 50 66 0
-3 50 -66 0
4 17 44 0
4 -61 -84 0
5 -36 63 0
-5 -6 37 0
-5 37 -63 0
6 -36 -37 0
7 8 -47 0
7 -43 64 0
-7 -8 87 0
8 -10 -70 0
-8 -22 -88 0
9 39 64 0
9 55 64 0
-9 -40 43 0
10 21 -60 0
10 21 88 0
10 -33 -72 0
10 34 -57 0
10 69 83 0
-10 24 -26 0
-10 -34 -88 0
-10 -70 -83 0
11 -19 -27 0
11 -19 -76 0
11 76 -80 0
-11 76 80 0
12 -27 -31 0
-12 78 79 0
-12 -78 -79 0
13 -31 -79 0
13 49 85 0
13 67 -68 0
13 67 85 0
13 67 91 0
-13 68 -91 0
-13 86 90 0
14 -78 -79 0
15 -29 30 0
-15 29 -30 0
16 51 -68 0
17 23 40 0
17 -44 -77 0
17 71 -77 0
-17 -18 -23 0
-17 -19 -44 0
-17 20 71 0
18 47 64 0
-18 -23 -38 0
-18 -39 -43 0
-18 -47 -64 0
-18 -64 81 0
19 38 81 0
-19 25 -28 0
-19 30 36 0
-19 -40 -55 0
-19 -44 -55 0
-19 -50 -51 0
-19 65 -84 0
-19 79 84 0
-20 -21 69 0
-20 70 72 0
22 41 53 0
-22 41 -70 0
-22 -41 53 0
-22 -53 -71 0
23 27 28 0
23 -76 -80 0
-23 -24 -26 0
-23 -27 -34 0
-23 -40 80 0
-23 -56 65 0
-23 67 89 0
-23 79 84 0
-23 86 89 0
25 28 -56 0
25 29 76 0
25 33 36 0
25 74 75 0
-25 -26 28 0
-25 -28 -33 0
26 28 31 0
-26 -28 31 0
27 -34 -57 0
-27 -28 -31 0
-27 -32 34 0
28 -29 73 0
29 -30 -37 0
35 -56 -59 0
-36 37 -63 0
38 39 64 0
38 47 70 0
-38 -39 -55 0
-38 47 -64 0
-38 53 -72 0
39 40 48 0
-39 70 83 0
40 -43 -87 0
-40 -55 -64 0
45 60 83 0
-45 48 -55 0
-45 -48 64 0
-46 47 64 0
-46 47 -64 0
-46 -47 64 0
47 64 -81 0
49 85 -86 0
50 66 67 0
50 -66 89 0
50 -66 -89 0
-50 66 89 0
-50 -66 89 0
51 67 85 0
51 67 91 0
52 78 84 0
56 61 -74 0
58 78 -79 0
-58 76 -80 0
-61 -78 84 0
66 86 90 0
66 -86 -89 0
-66 86 89 0
-66 -86 90 0
-66 90 -91 0
70 83 -88 0
74 -75 -76 0
-14 57 58 -78 0
24 -35 56 -61 0
1 2 0
1 -18 0
1 32 0
1 -32 0
1 -42 0
1 56 0
1 -60 0
1 -87 0
1 88 0
-1 -3 0
-1 -5 0
-1 24 0
-1 -24 0
-1 -32 0
-1 62 0
-1 -90 0
2 6 0
2 61 0
2 65 0
-2 35 0
-2 -65 0
-2 74 0
-2 84 0
3 24 0
3 28 0
3 -32 0
3 -33 0
3 42 0
3 51 0
3 -67 0
3 68 0
3 89 0
-3 -16 0
-3 -19 0
-3 -23 0
-3 50 0
-3 -52 0
-3 -61 0
-3 66 0
-3 -66 0
-3 -68 0
-3 91 0
4 -6 0
4 8 0
4 16 0
4 61 0
4 -67 0
4 -82 0
4 89 0
-4 -19 0
-4 -61 0
-4 62 0
-4 78 0
5 -40 0
5 -52 0
5 61 0
5 -62 0
5 78 0
5 -82 0
5 -84 0
-5 35 0
-5 -65 0
-5 74 0
-5 84 0
6 35 0
6 -62 0
6 -82 0
-6 -33 0
-6 -35 0
-6 -59 0
-6 65 0
-6 -65 0
-6 74 0
7 8 0
7 60 0
7 -87 0
-7 -23 0
-7 -42 0
-7 -45 0
-7 -46 0
-7 87 0
8 9 0
8 -42 0
8 -45 0
8 83 0
-8 -19 0
-8 20 0
-8 -39 0
-8 42 0
-8 64 0
-8 88 0
9 39 0
-9 -40 0
-9 43 0
10 12 0
10 57 0
10 -57 0
10 -70 0
-10 -11 0
-10 -12 0
-10 28 0
-10 -34 0
-10 -70 0
11 14 0
11 15 0
11 26 0
11 -27 0
11 -33 0
11 -76 0
-11 -14 0
-11 30 0
-11 31 0
-11 -57 0
12 26 0
12 -31 0
-12 -13 0
-12 31 0
-12 -57 0
-12 73 0
13 -31 0
13 49 0
13 79 0
13 85 0
13 90 0
13 -90 0
13 91 0
-13 -50 0
-13 -67 0
14 -57 0
14 -58 0
14 73 0
14 79 0
-14 -31 0
15 31 0
15 -57 0
15 -58 0
-15 -31 0
-15 58 0
-15 -73 0
-15 -74 0
-15 -80 0
16 49 0
-16 -49 0
-16 -50 0
-16 -91 0
17 18 0
17 19 0
17 39 0
-17 40 0
18 21 0
18 41 0
18 42 0
18 54 0
18 69 0
-18 42 0
-18 -54 0
-18 -77 0
19 -26 0
19 54 0
19 56 0
19 60 0
